# Copyright 2014 - Anthony Awuley
# Brock University
# Computer Science Department

# GENERAL parameters
number-of-experiments                = 15
generations                          = 150
population-size                      = 4000
stop-when-solved                     = true
crossover-probability                = 0.9
mutation-probability                 = 0.1
selection-pressure                   = 0.9

# How many times the genotype is allowed to wrap
max-repairs                          = 1

# SELECTION
selection-operation                  = operator.operations.selection.TournamentSelection
tournament-size                      = 3
 
# REPRODUCTION operators
# Probability of crossover. State if the point of crossover is fixed on both chromosomes (The size will always be the same) or not
mutation_operation                   = Operator.Operations.IntFlipMutation
elite-size                           = 5
 
 
# The chromosomes are fixed length structures and doesnt change to mutation and crossover. 
# The initialiser will random create integer strings in this case of length specified
initial-chromosome-size              = 32
  
# FITNESS function - Fitness function requires the full package name
#fitness-function                    = fitnessevaluation.singleObjective.WeightedSum
#fitness-function                    = fitnessevaluation.simplefitness.FitnessExperimental
#fitness-function                    = fitnessevaluation.vrptw.WS
#fitness-function                    = fitnessevaluation.vrptw.SOR
#fitness-function                    = fitnessevaluation.vrptw.PR
#fitness-function                    = fitnessevaluation.eval.TSP
fitness-function                     = fitnessevaluation.eval.CVRP

# EC
main-class                           = main.Run

# INITIALISATION - Specifies which module to use as an initialiser initial population. 
initialiser                          = operator.initialiser.Initialise
#gene-representation                 = individuals.representation.VRPTW
gene-representation                  = individuals.representation.hybrid.TSP

# REPLACEMENT
replacement-operation                = operator.operations.replacement.Generational

# CROSSOVER MODULE
#crossover-operation                 = operator.crossover.CycleCrossover
crossover-operation                  = operator.crossover.UniformOrderCrossover

# MUTATION MODULE
mutation-operation                   = operator.mutation.Inversion
 

# Specification of output statistics files
number-of-individuals                = 1
#stats-operation                     = util.statistics.mop.ParethoStatistics
#stats-operation                     = util.statistics.mop.SumOfRankStatistics
#stats-operation                     = util.statistics.BasicStatistics
#stats-operation                     = util.statistics.sob.TSPStatistics
stats-operation                      = util.statistics.mop.CVRPHybridStatistics


NAME : eil33
COMMENT : (Eilon et al.)
TYPE : CVRP
DIMENSION : 33
EDGE_WEIGHT_TYPE : EUC_2D
nodes                                = 32
stat-out                             = eil33
vehicle-capacity                     = 8000
NODE_COORD_SECTION
1	292	495	0
2	298	427	700
3	309	445	400
4	307	464	400
5	336	475	1200
6	320	439	40
7	321	437	80
8	322	437	2000
9	323	433	900
10	324	433	600
11	323	429	750
12	314	435	1500
13	311	442	150
14	304	427	250
15	293	421	1600
16	296	418	450
17	261	384	700
18	297	410	550
19	315	407	650
20	314	406	200
21	321	391	400
22	321	398	300
23	314	394	1300
24	313	378	700
25	304	382	750
26	295	402	1400
27	283	406	4000
28	279	399	600
29	271	401	1000
30	264	414	500
31	277	439	2500
32	290	434	1700
33	319	433	1100

DEPOT_SECTION

EOF
